language Essence 1.3
letting nnodes be 90
letting nrings be 45
letting capacity be 33
letting demand be 
{{1, 2},
{1, 3},
{1, 6},
{1, 7},
{1, 8},
{1, 9},
{1, 10},
{1, 11},
{1, 12},
{1, 15},
{1, 17},
{1, 21},
{1, 25},
{1, 26},
{1, 27},
{1, 29},
{1, 32},
{1, 33},
{1, 37},
{1, 38},
{1, 39},
{1, 40},
{1, 41},
{1, 43},
{1, 46},
{1, 48},
{1, 49},
{1, 51},
{1, 53},
{1, 54},
{1, 57},
{1, 58},
{1, 59},
{1, 60},
{1, 61},
{1, 62},
{1, 63},
{1, 68},
{1, 69},
{1, 70},
{1, 71},
{1, 72},
{1, 73},
{1, 74},
{1, 76},
{1, 77},
{1, 78},
{1, 80},
{1, 81},
{1, 82},
{1, 83},
{1, 84},
{1, 86},
{1, 88},
{2, 3},
{2, 4},
{2, 5},
{2, 6},
{2, 8},
{2, 9},
{2, 10},
{2, 12},
{2, 13},
{2, 14},
{2, 16},
{2, 19},
{2, 21},
{2, 25},
{2, 26},
{2, 27},
{2, 32},
{2, 33},
{2, 35},
{2, 42},
{2, 43},
{2, 45},
{2, 46},
{2, 48},
{2, 55},
{2, 56},
{2, 58},
{2, 60},
{2, 61},
{2, 62},
{2, 65},
{2, 70},
{2, 71},
{2, 73},
{2, 74},
{2, 76},
{2, 77},
{2, 79},
{2, 83},
{2, 84},
{2, 86},
{2, 87},
{2, 88},
{3, 8},
{3, 13},
{3, 15},
{3, 17},
{3, 18},
{3, 20},
{3, 22},
{3, 23},
{3, 24},
{3, 26},
{3, 29},
{3, 33},
{3, 36},
{3, 40},
{3, 41},
{3, 42},
{3, 46},
{3, 47},
{3, 48},
{3, 52},
{3, 53},
{3, 54},
{3, 55},
{3, 59},
{3, 60},
{3, 63},
{3, 64},
{3, 68},
{3, 69},
{3, 72},
{3, 77},
{3, 78},
{3, 87},
{3, 88},
{3, 89},
{4, 5},
{4, 7},
{4, 9},
{4, 12},
{4, 14},
{4, 15},
{4, 18},
{4, 22},
{4, 25},
{4, 28},
{4, 30},
{4, 31},
{4, 32},
{4, 33},
{4, 37},
{4, 38},
{4, 41},
{4, 44},
{4, 45},
{4, 47},
{4, 53},
{4, 54},
{4, 55},
{4, 56},
{4, 57},
{4, 58},
{4, 63},
{4, 64},
{4, 65},
{4, 68},
{4, 71},
{4, 72},
{4, 73},
{4, 75},
{4, 77},
{4, 78},
{4, 81},
{4, 83},
{4, 84},
{4, 85},
{4, 86},
{4, 90},
{5, 6},
{5, 7},
{5, 13},
{5, 14},
{5, 18},
{5, 19},
{5, 20},
{5, 24},
{5, 26},
{5, 27},
{5, 28},
{5, 32},
{5, 38},
{5, 45},
{5, 48},
{5, 50},
{5, 51},
{5, 52},
{5, 55},
{5, 60},
{5, 64},
{5, 66},
{5, 67},
{5, 72},
{5, 73},
{5, 74},
{5, 82},
{5, 83},
{5, 85},
{5, 86},
{5, 89},
{5, 90},
{6, 8},
{6, 9},
{6, 10},
{6, 12},
{6, 13},
{6, 15},
{6, 17},
{6, 21},
{6, 23},
{6, 27},
{6, 28},
{6, 29},
{6, 34},
{6, 37},
{6, 38},
{6, 39},
{6, 41},
{6, 42},
{6, 45},
{6, 46},
{6, 47},
{6, 52},
{6, 53},
{6, 55},
{6, 59},
{6, 60},
{6, 61},
{6, 62},
{6, 63},
{6, 64},
{6, 68},
{6, 72},
{6, 75},
{6, 77},
{6, 78},
{6, 79},
{6, 81},
{6, 88},
{6, 90},
{7, 10},
{7, 11},
{7, 12},
{7, 18},
{7, 21},
{7, 22},
{7, 23},
{7, 24},
{7, 25},
{7, 27},
{7, 28},
{7, 31},
{7, 33},
{7, 35},
{7, 36},
{7, 37},
{7, 38},
{7, 39},
{7, 40},
{7, 41},
{7, 43},
{7, 44},
{7, 46},
{7, 47},
{7, 49},
{7, 50},
{7, 56},
{7, 57},
{7, 59},
{7, 60},
{7, 62},
{7, 64},
{7, 65},
{7, 67},
{7, 69},
{7, 76},
{7, 77},
{7, 78},
{7, 84},
{7, 88},
{7, 89},
{8, 10},
{8, 11},
{8, 14},
{8, 16},
{8, 17},
{8, 18},
{8, 19},
{8, 20},
{8, 21},
{8, 22},
{8, 23},
{8, 24},
{8, 26},
{8, 32},
{8, 33},
{8, 35},
{8, 36},
{8, 38},
{8, 41},
{8, 42},
{8, 48},
{8, 49},
{8, 50},
{8, 51},
{8, 52},
{8, 53},
{8, 54},
{8, 55},
{8, 58},
{8, 59},
{8, 61},
{8, 64},
{8, 69},
{8, 71},
{8, 75},
{8, 76},
{8, 80},
{8, 81},
{8, 82},
{8, 84},
{8, 85},
{8, 86},
{8, 89},
{8, 90},
{9, 10},
{9, 15},
{9, 16},
{9, 17},
{9, 18},
{9, 19},
{9, 20},
{9, 22},
{9, 23},
{9, 24},
{9, 26},
{9, 27},
{9, 28},
{9, 35},
{9, 37},
{9, 39},
{9, 40},
{9, 42},
{9, 43},
{9, 44},
{9, 46},
{9, 47},
{9, 50},
{9, 52},
{9, 53},
{9, 54},
{9, 56},
{9, 57},
{9, 58},
{9, 59},
{9, 60},
{9, 61},
{9, 62},
{9, 63},
{9, 64},
{9, 67},
{9, 69},
{9, 70},
{9, 71},
{9, 75},
{9, 76},
{9, 80},
{9, 82},
{9, 87},
{9, 88},
{9, 89},
{9, 90},
{10, 12},
{10, 17},
{10, 21},
{10, 23},
{10, 24},
{10, 28},
{10, 31},
{10, 33},
{10, 34},
{10, 38},
{10, 39},
{10, 43},
{10, 46},
{10, 49},
{10, 50},
{10, 51},
{10, 52},
{10, 54},
{10, 55},
{10, 56},
{10, 57},
{10, 58},
{10, 59},
{10, 60},
{10, 61},
{10, 62},
{10, 64},
{10, 65},
{10, 67},
{10, 70},
{10, 71},
{10, 72},
{10, 75},
{10, 81},
{10, 82},
{10, 85},
{10, 86},
{10, 88},
{11, 12},
{11, 13},
{11, 14},
{11, 18},
{11, 19},
{11, 21},
{11, 22},
{11, 23},
{11, 24},
{11, 27},
{11, 28},
{11, 29},
{11, 30},
{11, 31},
{11, 32},
{11, 37},
{11, 38},
{11, 40},
{11, 42},
{11, 43},
{11, 45},
{11, 46},
{11, 48},
{11, 49},
{11, 51},
{11, 52},
{11, 53},
{11, 60},
{11, 61},
{11, 62},
{11, 63},
{11, 64},
{11, 65},
{11, 66},
{11, 67},
{11, 69},
{11, 73},
{11, 74},
{11, 80},
{11, 81},
{11, 82},
{11, 83},
{11, 87},
{12, 13},
{12, 16},
{12, 18},
{12, 19},
{12, 21},
{12, 22},
{12, 23},
{12, 25},
{12, 32},
{12, 33},
{12, 34},
{12, 36},
{12, 37},
{12, 39},
{12, 40},
{12, 43},
{12, 44},
{12, 45},
{12, 46},
{12, 47},
{12, 52},
{12, 53},
{12, 55},
{12, 56},
{12, 58},
{12, 62},
{12, 63},
{12, 65},
{12, 70},
{12, 71},
{12, 73},
{12, 74},
{12, 75},
{12, 77},
{12, 78},
{12, 80},
{12, 86},
{12, 90},
{13, 14},
{13, 15},
{13, 16},
{13, 17},
{13, 18},
{13, 19},
{13, 20},
{13, 22},
{13, 26},
{13, 27},
{13, 29},
{13, 31},
{13, 32},
{13, 34},
{13, 35},
{13, 39},
{13, 41},
{13, 43},
{13, 44},
{13, 45},
{13, 46},
{13, 47},
{13, 50},
{13, 56},
{13, 57},
{13, 59},
{13, 60},
{13, 62},
{13, 65},
{13, 68},
{13, 69},
{13, 70},
{13, 71},
{13, 74},
{13, 77},
{13, 78},
{13, 79},
{13, 87},
{13, 89},
{14, 22},
{14, 25},
{14, 28},
{14, 31},
{14, 34},
{14, 35},
{14, 36},
{14, 38},
{14, 40},
{14, 41},
{14, 42},
{14, 45},
{14, 47},
{14, 48},
{14, 52},
{14, 53},
{14, 58},
{14, 61},
{14, 64},
{14, 65},
{14, 66},
{14, 69},
{14, 71},
{14, 72},
{14, 73},
{14, 74},
{14, 79},
{14, 80},
{14, 81},
{14, 83},
{14, 85},
{14, 88},
{14, 90},
{15, 16},
{15, 19},
{15, 21},
{15, 22},
{15, 23},
{15, 25},
{15, 27},
{15, 29},
{15, 30},
{15, 31},
{15, 32},
{15, 33},
{15, 34},
{15, 36},
{15, 38},
{15, 39},
{15, 40},
{15, 42},
{15, 43},
{15, 46},
{15, 49},
{15, 55},
{15, 57},
{15, 59},
{15, 60},
{15, 65},
{15, 68},
{15, 75},
{15, 77},
{15, 79},
{15, 81},
{15, 82},
{15, 83},
{15, 84},
{15, 85},
{15, 88},
{16, 17},
{16, 20},
{16, 21},
{16, 22},
{16, 24},
{16, 26},
{16, 27},
{16, 29},
{16, 31},
{16, 32},
{16, 36},
{16, 37},
{16, 38},
{16, 40},
{16, 42},
{16, 43},
{16, 46},
{16, 47},
{16, 48},
{16, 51},
{16, 53},
{16, 54},
{16, 58},
{16, 59},
{16, 61},
{16, 63},
{16, 65},
{16, 66},
{16, 67},
{16, 69},
{16, 70},
{16, 71},
{16, 73},
{16, 80},
{16, 81},
{16, 82},
{16, 84},
{16, 85},
{16, 86},
{17, 18},
{17, 19},
{17, 21},
{17, 23},
{17, 24},
{17, 27},
{17, 28},
{17, 30},
{17, 32},
{17, 33},
{17, 34},
{17, 40},
{17, 43},
{17, 44},
{17, 47},
{17, 48},
{17, 49},
{17, 51},
{17, 52},
{17, 53},
{17, 56},
{17, 58},
{17, 59},
{17, 60},
{17, 62},
{17, 64},
{17, 68},
{17, 69},
{17, 70},
{17, 74},
{17, 77},
{17, 78},
{17, 79},
{17, 83},
{17, 85},
{17, 88},
{18, 19},
{18, 21},
{18, 22},
{18, 23},
{18, 24},
{18, 25},
{18, 27},
{18, 31},
{18, 35},
{18, 38},
{18, 39},
{18, 41},
{18, 42},
{18, 45},
{18, 46},
{18, 49},
{18, 53},
{18, 54},
{18, 57},
{18, 60},
{18, 63},
{18, 64},
{18, 67},
{18, 68},
{18, 69},
{18, 72},
{18, 74},
{18, 75},
{18, 79},
{18, 83},
{18, 86},
{18, 87},
{18, 88},
{19, 21},
{19, 24},
{19, 25},
{19, 31},
{19, 32},
{19, 38},
{19, 39},
{19, 40},
{19, 41},
{19, 42},
{19, 44},
{19, 46},
{19, 49},
{19, 50},
{19, 51},
{19, 52},
{19, 53},
{19, 54},
{19, 58},
{19, 61},
{19, 62},
{19, 66},
{19, 68},
{19, 70},
{19, 71},
{19, 72},
{19, 73},
{19, 74},
{19, 75},
{19, 80},
{19, 81},
{19, 82},
{19, 83},
{19, 84},
{19, 85},
{19, 87},
{19, 88},
{19, 89},
{19, 90},
{20, 21},
{20, 22},
{20, 26},
{20, 28},
{20, 29},
{20, 30},
{20, 32},
{20, 34},
{20, 35},
{20, 38},
{20, 39},
{20, 40},
{20, 41},
{20, 42},
{20, 43},
{20, 44},
{20, 46},
{20, 47},
{20, 48},
{20, 51},
{20, 52},
{20, 54},
{20, 56},
{20, 60},
{20, 63},
{20, 66},
{20, 67},
{20, 68},
{20, 69},
{20, 70},
{20, 71},
{20, 72},
{20, 73},
{20, 83},
{20, 85},
{20, 86},
{20, 88},
{20, 89},
{21, 22},
{21, 23},
{21, 26},
{21, 28},
{21, 31},
{21, 32},
{21, 33},
{21, 35},
{21, 38},
{21, 39},
{21, 40},
{21, 42},
{21, 46},
{21, 47},
{21, 50},
{21, 54},
{21, 61},
{21, 62},
{21, 68},
{21, 70},
{21, 71},
{21, 73},
{21, 75},
{21, 76},
{21, 77},
{21, 79},
{21, 80},
{21, 83},
{21, 84},
{21, 86},
{21, 88},
{22, 25},
{22, 27},
{22, 29},
{22, 30},
{22, 31},
{22, 36},
{22, 37},
{22, 38},
{22, 39},
{22, 40},
{22, 41},
{22, 45},
{22, 48},
{22, 50},
{22, 53},
{22, 54},
{22, 56},
{22, 57},
{22, 59},
{22, 62},
{22, 66},
{22, 67},
{22, 72},
{22, 75},
{22, 76},
{22, 79},
{22, 80},
{22, 81},
{22, 83},
{22, 86},
{22, 88},
{22, 89},
{23, 24},
{23, 25},
{23, 26},
{23, 27},
{23, 28},
{23, 29},
{23, 30},
{23, 33},
{23, 34},
{23, 36},
{23, 38},
{23, 39},
{23, 40},
{23, 42},
{23, 43},
{23, 44},
{23, 46},
{23, 49},
{23, 53},
{23, 54},
{23, 55},
{23, 57},
{23, 58},
{23, 60},
{23, 61},
{23, 62},
{23, 63},
{23, 64},
{23, 65},
{23, 68},
{23, 71},
{23, 74},
{23, 76},
{23, 77},
{23, 78},
{23, 79},
{23, 80},
{23, 82},
{23, 83},
{23, 88},
{23, 89},
{23, 90},
{24, 27},
{24, 30},
{24, 32},
{24, 33},
{24, 37},
{24, 39},
{24, 41},
{24, 43},
{24, 44},
{24, 45},
{24, 47},
{24, 48},
{24, 49},
{24, 50},
{24, 51},
{24, 52},
{24, 54},
{24, 55},
{24, 60},
{24, 63},
{24, 66},
{24, 68},
{24, 70},
{24, 71},
{24, 73},
{24, 76},
{24, 77},
{24, 80},
{24, 81},
{24, 82},
{24, 83},
{24, 87},
{24, 88},
{25, 31},
{25, 32},
{25, 35},
{25, 40},
{25, 42},
{25, 44},
{25, 46},
{25, 48},
{25, 49},
{25, 51},
{25, 52},
{25, 54},
{25, 55},
{25, 56},
{25, 57},
{25, 58},
{25, 59},
{25, 60},
{25, 62},
{25, 64},
{25, 65},
{25, 66},
{25, 67},
{25, 73},
{25, 75},
{25, 76},
{25, 77},
{25, 78},
{25, 82},
{25, 83},
{25, 85},
{25, 86},
{25, 88},
{25, 90},
{26, 27},
{26, 32},
{26, 37},
{26, 38},
{26, 39},
{26, 40},
{26, 41},
{26, 42},
{26, 43},
{26, 46},
{26, 47},
{26, 48},
{26, 49},
{26, 50},
{26, 52},
{26, 55},
{26, 57},
{26, 58},
{26, 60},
{26, 61},
{26, 62},
{26, 63},
{26, 64},
{26, 65},
{26, 68},
{26, 69},
{26, 74},
{26, 76},
{26, 77},
{26, 78},
{26, 79},
{26, 81},
{26, 82},
{26, 86},
{26, 87},
{26, 89},
{26, 90},
{27, 28},
{27, 31},
{27, 35},
{27, 36},
{27, 39},
{27, 40},
{27, 44},
{27, 45},
{27, 49},
{27, 50},
{27, 53},
{27, 55},
{27, 57},
{27, 60},
{27, 62},
{27, 63},
{27, 67},
{27, 68},
{27, 69},
{27, 70},
{27, 72},
{27, 74},
{27, 75},
{27, 76},
{27, 77},
{27, 83},
{27, 84},
{27, 85},
{27, 86},
{28, 30},
{28, 31},
{28, 32},
{28, 36},
{28, 38},
{28, 39},
{28, 41},
{28, 43},
{28, 44},
{28, 45},
{28, 46},
{28, 49},
{28, 50},
{28, 52},
{28, 53},
{28, 59},
{28, 62},
{28, 63},
{28, 65},
{28, 66},
{28, 67},
{28, 69},
{28, 70},
{28, 75},
{28, 76},
{28, 77},
{28, 78},
{28, 81},
{28, 82},
{28, 89},
{29, 30},
{29, 31},
{29, 32},
{29, 34},
{29, 35},
{29, 37},
{29, 39},
{29, 40},
{29, 41},
{29, 42},
{29, 43},
{29, 44},
{29, 45},
{29, 49},
{29, 50},
{29, 51},
{29, 56},
{29, 60},
{29, 63},
{29, 64},
{29, 65},
{29, 67},
{29, 68},
{29, 69},
{29, 70},
{29, 71},
{29, 72},
{29, 75},
{29, 77},
{29, 83},
{29, 84},
{29, 86},
{29, 88},
{29, 89},
{29, 90},
{30, 31},
{30, 33},
{30, 34},
{30, 35},
{30, 36},
{30, 39},
{30, 40},
{30, 41},
{30, 42},
{30, 45},
{30, 46},
{30, 48},
{30, 52},
{30, 53},
{30, 56},
{30, 59},
{30, 60},
{30, 61},
{30, 62},
{30, 63},
{30, 66},
{30, 67},
{30, 68},
{30, 70},
{30, 76},
{30, 77},
{30, 79},
{30, 81},
{30, 82},
{30, 83},
{30, 84},
{30, 85},
{30, 87},
{30, 88},
{30, 89},
{30, 90},
{31, 32},
{31, 34},
{31, 35},
{31, 36},
{31, 40},
{31, 43},
{31, 44},
{31, 45},
{31, 47},
{31, 48},
{31, 49},
{31, 50},
{31, 53},
{31, 54},
{31, 57},
{31, 58},
{31, 59},
{31, 60},
{31, 61},
{31, 63},
{31, 67},
{31, 70},
{31, 71},
{31, 72},
{31, 73},
{31, 76},
{31, 78},
{31, 80},
{31, 85},
{31, 86},
{31, 87},
{31, 88},
{31, 89},
{31, 90},
{32, 35},
{32, 36},
{32, 37},
{32, 38},
{32, 41},
{32, 44},
{32, 45},
{32, 47},
{32, 48},
{32, 52},
{32, 54},
{32, 55},
{32, 59},
{32, 62},
{32, 64},
{32, 66},
{32, 68},
{32, 70},
{32, 73},
{32, 74},
{32, 77},
{32, 78},
{32, 79},
{32, 83},
{32, 84},
{32, 85},
{32, 88},
{33, 34},
{33, 35},
{33, 38},
{33, 39},
{33, 40},
{33, 41},
{33, 43},
{33, 44},
{33, 45},
{33, 48},
{33, 50},
{33, 51},
{33, 52},
{33, 53},
{33, 54},
{33, 56},
{33, 57},
{33, 58},
{33, 62},
{33, 65},
{33, 66},
{33, 67},
{33, 72},
{33, 75},
{33, 76},
{33, 78},
{33, 79},
{33, 80},
{33, 81},
{33, 82},
{33, 83},
{33, 87},
{33, 89},
{33, 90},
{34, 35},
{34, 36},
{34, 37},
{34, 38},
{34, 43},
{34, 46},
{34, 48},
{34, 50},
{34, 51},
{34, 53},
{34, 55},
{34, 56},
{34, 57},
{34, 58},
{34, 59},
{34, 61},
{34, 64},
{34, 66},
{34, 68},
{34, 71},
{34, 73},
{34, 76},
{34, 77},
{34, 78},
{34, 82},
{34, 83},
{34, 84},
{34, 85},
{34, 86},
{34, 87},
{34, 89},
{34, 90},
{35, 37},
{35, 41},
{35, 46},
{35, 51},
{35, 52},
{35, 53},
{35, 56},
{35, 57},
{35, 60},
{35, 61},
{35, 64},
{35, 69},
{35, 70},
{35, 71},
{35, 72},
{35, 73},
{35, 77},
{35, 79},
{35, 80},
{35, 84},
{35, 85},
{35, 86},
{35, 89},
{35, 90},
{36, 38},
{36, 39},
{36, 42},
{36, 45},
{36, 49},
{36, 52},
{36, 53},
{36, 54},
{36, 55},
{36, 57},
{36, 58},
{36, 60},
{36, 64},
{36, 66},
{36, 67},
{36, 71},
{36, 74},
{36, 75},
{36, 76},
{36, 78},
{36, 79},
{36, 80},
{36, 81},
{36, 82},
{36, 83},
{36, 85},
{36, 87},
{36, 89},
{37, 38},
{37, 39},
{37, 41},
{37, 48},
{37, 49},
{37, 50},
{37, 52},
{37, 53},
{37, 54},
{37, 55},
{37, 56},
{37, 57},
{37, 63},
{37, 64},
{37, 66},
{37, 67},
{37, 68},
{37, 70},
{37, 72},
{37, 73},
{37, 74},
{37, 77},
{37, 78},
{37, 80},
{37, 83},
{37, 84},
{37, 86},
{38, 39},
{38, 41},
{38, 44},
{38, 46},
{38, 48},
{38, 50},
{38, 51},
{38, 53},
{38, 56},
{38, 57},
{38, 61},
{38, 65},
{38, 66},
{38, 69},
{38, 70},
{38, 71},
{38, 73},
{38, 75},
{38, 76},
{38, 77},
{38, 81},
{38, 83},
{38, 86},
{38, 88},
{38, 89},
{39, 40},
{39, 42},
{39, 43},
{39, 44},
{39, 45},
{39, 48},
{39, 49},
{39, 52},
{39, 53},
{39, 56},
{39, 58},
{39, 59},
{39, 61},
{39, 63},
{39, 64},
{39, 66},
{39, 67},
{39, 70},
{39, 81},
{39, 82},
{39, 86},
{39, 88},
{39, 89},
{39, 90},
{40, 41},
{40, 42},
{40, 47},
{40, 48},
{40, 49},
{40, 50},
{40, 52},
{40, 58},
{40, 60},
{40, 61},
{40, 62},
{40, 64},
{40, 65},
{40, 67},
{40, 68},
{40, 69},
{40, 71},
{40, 72},
{40, 73},
{40, 74},
{40, 77},
{40, 78},
{40, 81},
{40, 82},
{40, 84},
{40, 89},
{40, 90},
{41, 42},
{41, 43},
{41, 47},
{41, 48},
{41, 51},
{41, 52},
{41, 54},
{41, 55},
{41, 56},
{41, 60},
{41, 61},
{41, 63},
{41, 64},
{41, 65},
{41, 67},
{41, 71},
{41, 75},
{41, 76},
{41, 77},
{41, 78},
{41, 81},
{41, 85},
{41, 86},
{41, 89},
{41, 90},
{42, 43},
{42, 51},
{42, 52},
{42, 55},
{42, 57},
{42, 59},
{42, 61},
{42, 62},
{42, 64},
{42, 66},
{42, 67},
{42, 69},
{42, 71},
{42, 72},
{42, 73},
{42, 78},
{42, 83},
{42, 84},
{42, 87},
{42, 90},
{43, 44},
{43, 45},
{43, 48},
{43, 49},
{43, 52},
{43, 54},
{43, 57},
{43, 58},
{43, 59},
{43, 60},
{43, 62},
{43, 63},
{43, 64},
{43, 65},
{43, 66},
{43, 68},
{43, 69},
{43, 70},
{43, 72},
{43, 73},
{43, 75},
{43, 77},
{43, 79},
{43, 80},
{43, 81},
{43, 85},
{43, 89},
{44, 47},
{44, 51},
{44, 52},
{44, 55},
{44, 56},
{44, 57},
{44, 59},
{44, 67},
{44, 68},
{44, 70},
{44, 71},
{44, 75},
{44, 76},
{44, 77},
{44, 78},
{44, 81},
{44, 85},
{44, 87},
{44, 88},
{45, 47},
{45, 50},
{45, 52},
{45, 53},
{45, 57},
{45, 58},
{45, 59},
{45, 61},
{45, 62},
{45, 66},
{45, 67},
{45, 69},
{45, 70},
{45, 71},
{45, 72},
{45, 73},
{45, 75},
{45, 76},
{45, 77},
{45, 78},
{45, 80},
{45, 81},
{45, 82},
{45, 85},
{45, 88},
{45, 89},
{46, 48},
{46, 49},
{46, 52},
{46, 54},
{46, 58},
{46, 59},
{46, 60},
{46, 62},
{46, 64},
{46, 66},
{46, 68},
{46, 69},
{46, 71},
{46, 72},
{46, 76},
{46, 77},
{46, 78},
{46, 80},
{46, 81},
{46, 85},
{46, 90},
{47, 48},
{47, 49},
{47, 55},
{47, 57},
{47, 58},
{47, 60},
{47, 61},
{47, 63},
{47, 66},
{47, 69},
{47, 72},
{47, 73},
{47, 75},
{47, 79},
{47, 81},
{47, 82},
{47, 83},
{47, 84},
{47, 89},
{48, 49},
{48, 50},
{48, 52},
{48, 56},
{48, 57},
{48, 60},
{48, 63},
{48, 69},
{48, 70},
{48, 71},
{48, 74},
{48, 77},
{48, 78},
{48, 80},
{48, 83},
{48, 85},
{48, 88},
{48, 89},
{49, 50},
{49, 54},
{49, 55},
{49, 57},
{49, 60},
{49, 62},
{49, 63},
{49, 64},
{49, 66},
{49, 69},
{49, 72},
{49, 77},
{49, 79},
{49, 83},
{49, 84},
{49, 85},
{49, 89},
{49, 90},
{50, 51},
{50, 53},
{50, 54},
{50, 55},
{50, 56},
{50, 57},
{50, 58},
{50, 59},
{50, 60},
{50, 62},
{50, 63},
{50, 64},
{50, 66},
{50, 67},
{50, 69},
{50, 73},
{50, 74},
{50, 75},
{50, 76},
{50, 77},
{50, 78},
{50, 80},
{50, 81},
{50, 82},
{50, 83},
{50, 84},
{50, 85},
{50, 86},
{50, 87},
{50, 89},
{50, 90},
{51, 55},
{51, 57},
{51, 58},
{51, 59},
{51, 61},
{51, 62},
{51, 63},
{51, 64},
{51, 65},
{51, 66},
{51, 67},
{51, 70},
{51, 71},
{51, 74},
{51, 76},
{51, 78},
{51, 79},
{51, 80},
{51, 82},
{51, 84},
{51, 85},
{51, 86},
{51, 89},
{51, 90},
{52, 54},
{52, 55},
{52, 61},
{52, 65},
{52, 67},
{52, 73},
{52, 74},
{52, 75},
{52, 76},
{52, 78},
{52, 80},
{52, 87},
{52, 88},
{52, 89},
{52, 90},
{53, 57},
{53, 58},
{53, 61},
{53, 62},
{53, 63},
{53, 64},
{53, 65},
{53, 68},
{53, 70},
{53, 71},
{53, 74},
{53, 77},
{53, 78},
{53, 79},
{53, 80},
{53, 82},
{53, 84},
{53, 90},
{54, 55},
{54, 56},
{54, 58},
{54, 63},
{54, 64},
{54, 65},
{54, 67},
{54, 68},
{54, 70},
{54, 71},
{54, 72},
{54, 73},
{54, 75},
{54, 76},
{54, 77},
{54, 80},
{54, 83},
{54, 84},
{54, 85},
{54, 86},
{54, 87},
{54, 88},
{55, 60},
{55, 62},
{55, 63},
{55, 67},
{55, 70},
{55, 71},
{55, 73},
{55, 75},
{55, 81},
{55, 85},
{55, 86},
{55, 89},
{56, 58},
{56, 61},
{56, 63},
{56, 65},
{56, 66},
{56, 67},
{56, 68},
{56, 69},
{56, 71},
{56, 73},
{56, 74},
{56, 78},
{56, 79},
{56, 80},
{56, 85},
{57, 58},
{57, 60},
{57, 61},
{57, 62},
{57, 64},
{57, 67},
{57, 72},
{57, 73},
{57, 77},
{57, 82},
{57, 83},
{57, 84},
{58, 59},
{58, 60},
{58, 61},
{58, 63},
{58, 64},
{58, 69},
{58, 70},
{58, 71},
{58, 72},
{58, 75},
{58, 76},
{58, 79},
{58, 82},
{58, 84},
{58, 85},
{58, 88},
{58, 89},
{58, 90},
{59, 62},
{59, 63},
{59, 68},
{59, 69},
{59, 71},
{59, 72},
{59, 74},
{59, 75},
{59, 78},
{59, 79},
{59, 81},
{59, 83},
{59, 84},
{59, 86},
{59, 87},
{60, 61},
{60, 70},
{60, 73},
{60, 74},
{60, 75},
{60, 76},
{60, 77},
{60, 79},
{60, 81},
{60, 84},
{60, 88},
{60, 89},
{60, 90},
{61, 62},
{61, 63},
{61, 69},
{61, 70},
{61, 71},
{61, 72},
{61, 75},
{61, 76},
{61, 78},
{61, 79},
{61, 83},
{61, 86},
{61, 88},
{62, 63},
{62, 64},
{62, 65},
{62, 67},
{62, 73},
{62, 74},
{62, 75},
{62, 77},
{62, 78},
{62, 82},
{62, 83},
{62, 86},
{62, 89},
{62, 90},
{63, 66},
{63, 72},
{63, 74},
{63, 75},
{63, 77},
{63, 83},
{63, 85},
{63, 87},
{64, 65},
{64, 66},
{64, 71},
{64, 73},
{64, 75},
{64, 76},
{64, 78},
{64, 79},
{64, 80},
{64, 81},
{64, 82},
{64, 87},
{64, 89},
{64, 90},
{65, 66},
{65, 68},
{65, 69},
{65, 70},
{65, 71},
{65, 72},
{65, 73},
{65, 74},
{65, 75},
{65, 76},
{65, 79},
{65, 80},
{65, 81},
{65, 83},
{65, 85},
{65, 86},
{65, 87},
{66, 67},
{66, 72},
{66, 73},
{66, 75},
{66, 77},
{66, 78},
{66, 84},
{66, 85},
{67, 69},
{67, 71},
{67, 73},
{67, 75},
{67, 77},
{67, 79},
{67, 80},
{67, 81},
{67, 82},
{67, 84},
{67, 86},
{67, 88},
{67, 89},
{68, 70},
{68, 71},
{68, 78},
{68, 79},
{68, 85},
{68, 87},
{68, 89},
{69, 70},
{69, 72},
{69, 73},
{69, 74},
{69, 75},
{69, 79},
{69, 80},
{69, 82},
{69, 85},
{69, 89},
{70, 74},
{70, 79},
{70, 82},
{70, 84},
{70, 85},
{70, 87},
{70, 88},
{70, 89},
{70, 90},
{71, 73},
{71, 74},
{71, 76},
{71, 77},
{71, 78},
{71, 80},
{71, 83},
{71, 86},
{71, 87},
{71, 88},
{72, 74},
{72, 75},
{72, 76},
{72, 79},
{72, 80},
{72, 81},
{72, 84},
{72, 85},
{72, 86},
{72, 87},
{72, 88},
{72, 89},
{72, 90},
{73, 74},
{73, 76},
{73, 77},
{73, 79},
{73, 80},
{73, 81},
{73, 82},
{73, 90},
{74, 75},
{74, 76},
{74, 80},
{74, 83},
{74, 84},
{74, 86},
{74, 89},
{74, 90},
{75, 76},
{75, 80},
{75, 82},
{75, 83},
{75, 84},
{75, 85},
{75, 86},
{75, 88},
{75, 89},
{75, 90},
{76, 79},
{76, 80},
{76, 83},
{76, 84},
{76, 86},
{76, 87},
{76, 88},
{76, 89},
{76, 90},
{77, 81},
{77, 83},
{77, 84},
{77, 85},
{77, 86},
{78, 79},
{78, 81},
{78, 82},
{78, 85},
{78, 86},
{78, 87},
{78, 88},
{78, 90},
{79, 81},
{79, 84},
{79, 85},
{79, 87},
{79, 88},
{79, 89},
{80, 81},
{80, 83},
{80, 85},
{80, 86},
{80, 88},
{80, 89},
{80, 90},
{81, 84},
{81, 85},
{81, 87},
{81, 88},
{81, 90},
{82, 83},
{82, 85},
{82, 90},
{83, 84},
{83, 87},
{84, 86},
{84, 87},
{84, 89},
{84, 90},
{85, 86},
{85, 87},
{85, 88},
{85, 89},
{85, 90},
{86, 89},
{86, 90},
{87, 88},
{87, 89}}
